2167224
66,37,6,25,65,33,54,45,42,32,51,56,17,9,30,21,13,43,36,52,67,34,38,61,50,7,14,57,8,16,26,62,35,27,49,44,1,3,19,12,53,48,22,18,24,29,40,2,59,55,39,31,41,23,60,58,15,20,64,47,46,0,11,4,28,5,63,10
